param n := 120;
param c := 1000;
param : V : p w :=
   0	  53	 470
   1	  95	 254
   2	  10	 276
   3	  63	 393
   4	  59	 271
   5	  96	 336
   6	  92	 354
   7	  92	 282
   8	  90	 364
   9	  96	 366
  10	  47	 262
  11	  16	 372
  12	  40	 418
  13	  21	 265
  14	  31	 317
  15	  20	 442
  16	  68	 257
  17	  14	 301
  18	   9	 463
  19	  11	 252
  20	  82	 285
  21	  38	 447
  22	  66	 254
  23	  17	 299
  24	  56	 473
  25	  45	 250
  26	  49	 277
  27	  83	 412
  28	  11	 272
  29	  41	 316
  30	  68	 351
  31	   3	 253
  32	  77	 396
  33	  30	 415
  34	  67	 289
  35	  65	 296
  36	  37	 403
  37	  39	 268
  38	  12	 329
  39	  19	 381
  40	  18	 295
  41	  35	 324
  42	  47	 397
  43	  41	 299
  44	   7	 304
  45	  83	 499
  46	 100	 250
  47	  65	 251
  48	   5	 457
  49	  84	 255
  50	  53	 288
  51	  26	 437
  52	  83	 278
  53	  82	 285
  54	  48	 354
  55	  70	 298
  56	  93	 348
  57	  67	 412
  58	  93	 265
  59	  43	 323
  60	  56	 419
  61	  76	 277
  62	  93	 304
  63	  49	 471
  64	  92	 252
  65	  52	 277
  66	  84	 434
  67	  16	 279
  68	  20	 287
  69	  86	 354
  70	  32	 256
  71	  90	 390
  72	  34	 476
  73	  99	 255
  74	  81	 269
  75	  51	 480
  76	  79	 254
  77	  18	 266
  78	  84	 418
  79	  21	 254
  80	  74	 328
  81	  48	 369
  82	  33	 280
  83	  18	 351
  84	  10	 411
  85	 100	 265
  86	  17	 324
  87	  72	 432
  88	  66	 278
  89	   6	 290
  90	  80	 406
  91	  18	 273
  92	  63	 321
  93	  75	 439
  94	  41	 274
  95	  74	 287
  96	  54	 393
  97	  26	 261
  98	  29	 346
  99	  34	 444
 100	  99	 255
 101	  92	 301
 102	  22	 499
 103	  51	 250
 104	  29	 251
 105	  19	 439
 106	  16	 261
 107	  78	 300
 108	   6	 374
 109	  90	 306
 110	  44	 320
 111	  81	 467
 112	  44	 257
 113	  39	 276
 114	  32	 410
 115	  87	 274
 116	  98	 316
 117	  84	 405
 118	  68	 294
 119	  75	 301
;

set E :=
   0	   5
   0	  21
   0	  23
   0	  37
   0	  43
   0	  59
   0	  72
   0	  73
   0	  88
   0	  90
   0	  95
   0	 101
   0	 102
   0	 115
   0	 118
   1	   8
   1	  13
   1	  20
   1	  37
   1	  42
   1	  50
   1	  55
   1	  59
   1	 101
   1	 107
   1	 108
   1	 109
   2	   4
   2	  15
   2	  29
   2	  45
   2	  56
   2	  61
   2	  85
   2	  99
   3	  10
   3	  11
   3	  15
   3	  16
   3	  18
   3	  67
   3	  68
   3	  83
   3	  84
   3	 103
   3	 112
   3	 113
   4	   5
   4	  24
   4	  37
   4	  39
   4	  49
   4	  61
   4	  82
   4	  91
   4	  93
   4	  97
   4	  99
   4	 101
   4	 112
   4	 115
   5	   6
   5	  22
   5	  47
   5	  63
   5	  64
   5	  65
   5	  66
   5	  77
   5	  84
   5	  87
   5	  91
   5	  94
   5	  96
   5	 114
   6	  10
   6	  22
   6	  44
   6	  47
   6	  71
   6	  76
   6	  84
   6	  85
   6	  95
   6	  99
   6	 102
   7	   9
   7	  10
   7	  22
   7	  39
   7	  55
   7	  57
   7	  76
   7	  78
   7	  84
   7	  87
   7	  93
   7	  95
   7	 105
   7	 112
   7	 114
   8	  23
   8	  29
   8	  39
   8	  60
   8	  61
   8	  66
   8	  84
   8	  86
   8	  87
   8	  92
   8	 118
   9	  10
   9	  20
   9	  39
   9	  43
   9	  62
   9	  99
   9	 100
   9	 115
  10	  17
  10	  33
  10	  36
  10	  55
  10	  60
  10	  65
  10	  67
  10	  69
  10	  82
  10	  88
  10	  91
  10	  92
  10	 100
  11	  23
  11	  24
  11	  41
  11	  47
  11	  53
  11	  70
  11	  73
  11	  90
  11	  98
  12	  15
  12	  21
  12	  28
  12	  38
  12	  47
  12	  58
  12	  65
  12	 108
  12	 112
  13	  30
  13	  36
  13	  42
  13	  67
  13	  71
  13	  74
  13	  76
  13	  77
  13	  88
  13	 103
  13	 107
  14	  24
  14	  30
  14	  42
  14	  57
  14	  74
  14	  75
  14	  88
  14	 104
  14	 108
  14	 110
  14	 111
  14	 112
  15	  19
  15	  21
  15	  47
  15	  58
  15	  65
  15	  74
  15	  80
  15	  88
  15	  93
  15	 113
  16	  26
  16	  35
  16	  47
  16	  57
  16	  59
  16	  85
  16	 117
  16	 118
  17	  26
  17	  27
  17	  41
  17	  45
  17	  54
  17	  83
  18	  19
  18	  21
  18	  23
  18	  25
  18	  27
  18	  30
  18	  56
  18	  75
  18	  82
  18	  84
  18	  90
  18	  93
  18	  94
  18	 105
  19	  24
  19	  30
  19	  75
  19	  81
  19	  96
  19	 100
  19	 115
  20	  28
  20	  29
  20	  32
  20	  45
  20	  51
  20	  59
  20	  75
  20	  79
  20	  81
  20	 104
  20	 114
  21	  28
  21	  41
  21	  42
  21	  46
  21	  51
  21	  72
  21	  75
  21	  84
  21	  88
  21	 101
  21	 110
  22	  47
  22	  50
  22	  57
  22	  74
  22	  78
  22	  79
  22	  96
  22	 100
  22	 104
  22	 111
  22	 118
  23	  50
  23	  53
  23	  77
  23	  80
  23	 102
  23	 106
  24	  42
  24	  54
  24	  62
  24	  74
  24	  81
  24	 105
  24	 107
  24	 109
  25	  34
  25	  37
  25	  43
  25	  45
  25	  46
  25	  47
  25	  58
  25	  67
  25	 111
  25	 118
  26	  30
  26	  37
  26	  99
  26	 104
  26	 108
  26	 116
  26	 117
  27	  33
  27	  48
  27	  58
  27	  60
  27	  61
  27	  65
  27	  79
  27	  84
  27	  88
  27	  90
  27	 103
  27	 105
  27	 117
  28	  31
  28	  50
  28	  51
  28	  58
  28	  64
  28	  68
  28	  85
  28	  88
  28	  90
  28	  92
  28	 109
  29	  30
  29	  31
  29	  54
  29	  59
  29	  64
  29	  72
  29	  77
  29	  94
  29	 102
  29	 113
  30	  38
  30	  40
  30	  42
  30	  43
  30	  47
  30	  52
  30	  58
  30	  83
  30	 106
  31	  44
  31	  50
  31	  56
  31	  57
  31	  60
  31	  70
  31	  72
  31	  78
  31	  84
  31	 119
  32	  33
  32	  41
  32	  60
  32	  64
  32	  68
  32	  69
  32	  84
  32	  89
  32	  93
  32	 101
  32	 115
  32	 118
  33	  58
  33	  72
  33	  80
  33	  96
  33	 106
  33	 116
  34	  41
  34	  44
  34	  52
  34	  57
  34	  70
  34	  78
  34	  84
  34	 105
  35	  58
  35	  63
  35	  67
  35	  74
  35	  91
  35	 107
  36	  51
  36	  81
  36	  83
  36	 102
  36	 105
  36	 116
  36	 118
  36	 119
  37	  41
  37	  44
  37	  57
  37	  62
  37	  67
  37	  72
  37	  74
  37	  75
  37	  76
  37	  93
  37	 109
  37	 114
  38	  42
  38	  73
  38	  74
  38	  90
  38	  91
  38	 115
  38	 116
  39	  50
  39	  58
  39	  62
  39	  70
  39	  89
  39	 103
  40	  47
  40	  52
  40	  60
  40	  62
  40	  74
  40	  79
  40	  91
  40	 107
  40	 119
  41	  46
  41	  51
  41	  53
  41	  56
  41	  79
  41	  81
  41	  82
  41	  83
  41	  87
  41	  90
  41	  99
  41	 116
  42	  55
  42	  59
  42	  69
  42	 103
  42	 105
  42	 111
  43	  47
  43	  59
  43	  66
  43	  77
  43	  80
  43	  97
  43	 102
  44	  62
  44	  67
  44	  68
  44	 101
  44	 103
  44	 111
  45	  57
  45	  63
  45	  65
  45	  70
  45	  72
  45	  75
  45	  88
  45	  96
  45	 109
  45	 115
  46	  61
  46	  66
  46	  68
  46	  77
  46	  83
  46	 108
  46	 114
  47	  53
  47	  80
  47	  87
  47	  94
  47	  98
  47	 101
  47	 106
  47	 110
  47	 111
  48	  67
  48	  69
  48	  70
  48	  92
  48	 101
  49	  56
  49	  62
  49	  70
  49	  73
  49	  81
  49	  90
  49	 105
  49	 111
  49	 116
  50	  52
  50	  58
  50	  67
  50	  72
  50	  87
  50	  91
  50	  98
  50	 101
  50	 104
  50	 109
  51	  55
  51	  71
  51	  76
  51	  77
  51	  81
  51	  86
  51	  91
  51	 102
  52	  53
  52	  61
  52	  71
  52	  85
  52	  88
  52	  91
  52	  95
  52	  96
  52	 105
  52	 118
  53	  70
  53	  71
  53	  75
  53	  92
  53	 100
  53	 109
  54	  59
  54	  78
  54	  82
  54	  86
  54	  89
  55	  71
  55	  81
  55	  89
  55	 102
  55	 115
  56	  62
  56	  72
  56	  75
  56	  90
  56	  91
  56	  97
  56	 100
  56	 105
  56	 109
  57	  78
  57	 100
  57	 107
  57	 108
  58	  66
  58	  81
  58	 107
  58	 114
  59	  66
  59	  73
  59	  76
  59	  83
  59	 113
  59	 119
  60	  65
  60	  71
  60	  79
  60	  81
  60	  89
  60	  98
  60	 112
  60	 114
  60	 116
  61	  63
  61	  71
  61	  79
  61	  96
  61	  97
  62	  78
  62	  80
  62	  92
  62	 102
  62	 116
  62	 118
  62	 119
  63	  71
  63	  77
  63	  83
  63	  85
  63	  95
  63	 109
  63	 117
  64	  77
  64	  81
  64	  92
  64	 100
  65	  67
  65	  71
  65	  86
  65	  87
  65	 116
  66	  94
  66	 107
  66	 109
  67	  76
  67	  88
  67	  92
  67	  93
  67	 100
  67	 114
  68	  76
  68	  77
  68	  86
  68	 100
  68	 107
  68	 112
  68	 116
  69	  77
  69	  89
  69	 102
  69	 109
  69	 115
  70	  73
  70	  83
  70	  91
  70	  94
  70	 106
  70	 108
  70	 117
  70	 119
  71	  87
  71	  89
  71	 104
  72	  82
  72	  91
  72	  92
  72	 102
  73	  77
  73	  78
  73	 100
  73	 106
  74	  87
  74	 102
  74	 105
  75	  79
  76	  80
  76	  87
  76	  93
  76	 100
  76	 103
  76	 105
  76	 107
  77	  78
  78	  79
  78	 108
  78	 113
  79	  80
  79	  88
  79	  94
  79	 101
  79	 107
  80	  95
  80	 101
  81	  82
  81	 105
  81	 118
  82	  87
  82	  88
  82	  99
  83	  87
  83	  95
  83	  96
  83	 102
  83	 113
  83	 116
  84	 100
  84	 107
  84	 111
  85	  91
  85	 107
  85	 111
  85	 112
  85	 119
  86	 106
  86	 109
  86	 113
  86	 117
  87	 111
  87	 119
  88	  92
  88	 100
  88	 108
  89	  93
  89	  98
  89	 102
  89	 104
  89	 106
  89	 107
  89	 114
  89	 116
  89	 117
  91	  95
  91	 111
  91	 112
  91	 119
  92	  94
  92	  95
  93	  97
  93	  98
  93	 113
  95	 118
  96	 110
  96	 119
  97	 107
  97	 108
  97	 113
  97	 116
  97	 117
  98	 104
  98	 109
  99	 107
 100	 107
 101	 103
 101	 105
 101	 110
 101	 111
 101	 118
 102	 111
 102	 119
 106	 113
 107	 118
 108	 114
 108	 118
 110	 118
 111	 115
 118	 119
;
